
 102   30
  10   10   10   10   10   10   10   10   10   10   10   10   10   10   10   10   10   10   10   10   10   10   10   10   10   10   10   10   10   10

   0   0   0   0   0   0   0   0   0   0   0   0   0   0   0   0   0   0   0   0   0   0   0   0   0   0   0   0   0   0   0  27 2 3 4 5 6 7 8 9 10 11 12 13 14 15 16 17 19 21 23 25 26 27 29 31 36 40 41 
   8   0   0   0   0   1   0   0   0   0   0   0   2   1   0   0   1   1   0   0   0   0   0   0   0   2   1   0   0   0   0  16 101 100 73 65 53 52 46 45 44 42 38 37 33 30 24 18 
   3   0   0   1   0   0   0   2   0   0   0   0   6   0   0   1   0   0   0   0   0   0   0   0   0   7   0   0   0   0   0  19 101 100 99 65 64 60 59 58 57 49 47 46 45 44 43 42 39 38 32 
   7   0   5   0   1   0   0   0   2   0   0   0   0   0   0   0   0   0   0   0   0   0   0   0   0   0   0   1   0   0   2  19 101 100 99 73 71 64 62 60 59 58 52 49 48 46 45 42 39 38 28 
   7   0   0   6   4   0   0   0   4   2   1   0   0   0   0   0   0   0   0   0   0   0   0   0   0   0   0   0   0   0   0  19 100 99 96 94 72 71 65 64 62 61 60 59 58 49 47 46 39 38 34 
   4   0   0   0   0   0   0   0   8   0   0   0   0   0   1   0   0   0   1   0   0   0   0   0   0   0   0   0   0   0   0  18 100 99 96 73 71 65 64 60 59 58 51 50 48 46 45 44 42 35 
   9   0   0   0   0   0   0   0   3   0   0   0   0   0   0   0   0   4   0   0   0   0   0   0   1   0   6   0   2   0   0  12 100 72 65 64 61 60 58 50 45 42 24 20 
   6   0   0   0   0   0   0   0   0   0   8   0   0   6   0   0   0   0   0   0   0   0   0   0   0   0   0   0   0   0   0   9 73 65 63 62 58 55 48 37 22 
  10   0   0   0   0  10   0   0   0   0   0   0   0   0   0   0   0   0   0   0   0   0   0   0   0   0   0   0   0   0   0  13 100 98 73 71 68 67 60 57 50 48 45 42 33 
   7   0   0   0   6   0   1   0   0   0   0   0   0   0   0   0   0   0   0   0   0   0   0   0   0   0  10   0   0   0   5  18 100 98 96 92 91 87 84 72 71 69 64 62 56 53 48 45 44 42 
   8   0   0   0   0   9   0   0   0   0   0   0   0   0   0   0   0   0   0   0   0   0   0   0   7   0   0   0   0   0   0  22 99 98 97 96 95 94 92 84 72 71 68 67 65 64 62 61 58 57 55 54 50 47 
   4   0   0   0   0   0   0   0   0   0   0   0   8   0   0   0   0   0   0   2   0   0   0   0   0   0   0   7   0   0   0  12 100 97 96 94 88 72 64 63 62 46 44 34 
   3   3   0   0   0   0   0   0   0   0   0   0   0   0   0   0   0   0   0   0   0   0   0   0   0   0   0   0   0   0   5  10 99 97 92 88 87 67 64 56 42 32 
   6   0   0   0   0   0   0   0   0   0   0   0   0   7   0   0   0   8   0   6   2   0   0   2   0   0   0   0   0   0   0  18 101 99 98 96 92 91 88 87 84 70 69 68 65 64 63 56 45 44 
   9   0   0   0   0   0   0   2   0   0   0   0   0   0   0   0   0   0   0   0   0   0   0   0   5   0   0   8   0   0   0  23 101 96 95 93 92 91 90 88 87 86 85 80 73 72 69 68 67 66 64 62 55 54 51 
   8   0   0   0   0   0   0   0   0   0   0   0   0   0   0   0   0   0   0   0   0   0   0   0   0   0   0   0   0   0   0  17 98 96 94 93 90 86 85 82 73 67 62 61 59 54 53 50 49 
   9   3   0   5   0   4   0   5  10   0   0   0   0   0   0   0   7   0   0   0   0   0   0   0   0   0   0   0   0   0   0  11 98 91 89 83 71 67 59 50 49 46 42 
   1   0   0   8   0   8   0   0   0   0   0   0   0   0   0   0   0   0   0   2   0   0   0   0   0   0   0   0   0   0   7  15 98 96 94 89 87 86 84 82 71 70 67 58 49 48 47 
   3   0   0   0   7   0   0   9   0   0   5   0   0   0   0   0   0   0   0   0   0   0   0   0   0   0   5   0   0   0   0  12 101 99 96 92 89 86 80 69 58 57 46 44 
   2   0   3   0   0   0   3   0   0   0   4   0   3   0   0   0   0   0   0   0   0   0   0   8   0   7   0   0   0   0  10  16 101 98 97 96 94 92 86 85 80 70 69 67 62 57 54 46 
   2   0   6   0   0   0   0   0   0   0   0   0   0   0   0   0   7   0   0   0   0   0   3   0   0   0   0   0   0   0   0  13 95 89 88 85 84 71 68 67 62 58 57 54 42 
   3   0   0   0   0   0   0   0   0   0   0   0   6   0   0   0   5   0   0   5   4   0   0   0   0   0   0   0   0   0   0  12 101 96 93 92 86 81 71 64 61 53 50 47 
  10   0   0   0   0   0   0   0   0   0   0   0   0   0   8   8   0   0   3   0   0   1   0   0   0   0   0   0   9   0   0  18 99 96 95 94 93 90 89 87 84 82 72 68 66 62 58 57 55 48 
   9   6   0   0   0   4   0   0   6   0   0   0   0   0   0   0   3   0   0   0   0   0   0   0   0   0   7   0   0   0   0  20 99 97 96 94 92 89 88 87 85 84 83 82 69 68 67 66 63 56 55 54 
   3   0   0   0   0   0   0   0   0   0   0   2   0   0   0   5  10   0   0   0   0   0   0  10   0   0   0   0  10   0   0  14 100 94 93 92 87 85 82 68 67 63 57 56 52 51 
   7   0   0   0   0   0   0   0   0   0   0   0   0   7   0   0   0   0   0   2   0   0   0   0   0   6   0   6   0   0   0  12 97 89 87 84 82 71 70 69 68 49 48 44 
   9   0   0   0   0   0   0   0   0   0   0   0   0   0   0   0   0   0   0   0   0   0   0   0   0   0   0   0   0   0   0  20 100 99 97 95 94 92 89 88 87 86 84 82 81 80 79 70 68 66 62 55 
   7   0   0   0   0   0   0   0   0   0   0   0   9   0   0   4   0   0   0   0   0   0   0   0   0   4   0   0   0   1   0  15 96 95 92 91 89 88 87 84 82 80 78 68 57 54 47 
   8   0   0   0   0   0   9   0   5   0   0   4   0   0   0   0   0   0   0   0   0   0   0   5   0   0   0   0   0   0   0  21 96 95 94 93 92 91 90 89 88 87 86 85 84 82 81 79 75 68 66 65 62 
   2   0   0   0   6   0   4   6   0   0   0   0   0   0   0   0   0   0   0   0   0   0   0   0   0   0   0   0   0   0   0  14 98 95 93 86 84 82 80 72 68 67 66 62 57 48 
   3   6  10   0   0   0   0   0   0   6   0   0   0   3   0   2   0   0   0   0   0   0   0   0   0   0   0   0   0   0   0  19 96 95 93 92 91 90 89 88 87 86 83 82 81 78 76 67 66 65 59 
   8   0   0   0   0   0   0   0   0   0   0   0   0   0   0   0   5   8   0   0   0   0   0   0   0   0   0   0   0   0   0  16 96 93 90 89 86 85 84 83 82 80 73 72 69 61 55 54 
   2   0   0   0   0   9   5   0   0   8   0   0   0   0   0   7   0   8   0   0   7   0   0   0   0   0   0   0   0   0   0  15 96 95 93 92 89 88 86 84 82 79 70 69 61 56 55 
   2   0   4   8   0   7   0   0   0   0   0   0   3   0   0   0   4   0   0   0   0  10   0   0   0   0   0   5   5   7   0  16 98 93 92 90 89 86 85 83 80 78 73 70 69 68 66 54 
   4   7   0   0   0   5   0   9   0   0   0   0   0   0   0   8   0   0   0   0   0   0   0   0   0   0   0   0   5   0   0  17 98 95 94 93 92 91 90 89 88 85 83 82 80 77 75 72 57 
   9   0   0   0   0   0   0   0   0   0   0   0   0   0   0   0   0   0   0   0   0   0   0   0   0   0   0   0   0   0   0  14 99 94 88 87 86 82 81 79 71 69 67 58 56 55 
   4   0   0   0   0   0   8   8   0   0   0  10   0   0   0   0   0   0   0   0   0   0   0   0   0   0   0   0   0   0   9  11 97 95 87 85 71 70 67 66 60 59 54 
   5   0   0   0   0   0   0   0   0   0   0   7   0   0   0   0   0   0   0   0   4   0   0   0   0   0   0   9   0   0   0  12 97 95 93 91 90 86 84 83 82 67 66 50 
   8   0   0   0   0   0   0   0   0   0   0   0   0   0   0   9   8   5   0   6   0   0   9   0   0   0   9   0   0   0   0  13 98 95 90 89 85 82 78 70 69 67 66 55 53 
   5   0   0   0   0   7   0   0   5   0   7   0   0   0   0   0   0   0   0   0   0   0   0   7   0   0   0   0   0   0   0  12 101 94 90 85 83 82 79 76 72 67 66 58 
   8   0   0   0   0   0   0   0   0   0   0   0   7   0   0   8   0   0   0   0   0   0   0   0   0   0   0   0   0   0   4  11 94 93 86 84 82 81 79 75 66 65 56 
   4   0   0   0   0   0   0   0   0   0   0   0   0   0   0   0   0   0   0   0   0   0   0   0   0   0   0   0   0   0   0  11 94 93 90 82 81 80 78 77 70 66 63 
   1   0   0   0   0   0   0   0   0   0   0   0   0   6   0   0   0   0   0   0   7   0   0   0   9   4   0   0   0   0   0   9 91 88 87 84 82 81 74 62 55 
   5   0   0   0   0   0   0   0   0   0   0   0   0   0   0   0   0   0   0   0   0   0   5   0   4   0   0   0   0   0   4   7 85 83 78 74 67 55 54 
   5   0   0   0   0   0   7   8   0   0   0   0   0   0   0   0   0   0   0   0   0   0   0   0   0   0   6   0   0   0   0  10 97 94 89 86 81 80 79 77 75 66 
   2   0   8   0   0   0   0   0   0   0   5   0   0   4   0   0   0   0   0   0   0   0  10   0   0   0   0   0   0   0   0   8 95 93 87 84 82 79 68 66 
   1   7   0   6   0   0   0   0   0   0   0   0   0   0   0   0   0   0   0   0   0  10   0   0   0   0   0   0   0   0   0   7 90 85 83 77 76 69 66 
   5   4   0   0   0   0   0   7   0   0   0   7   7   0   0   0   9   0   0   0  10   0   6   0   0   0   0   6   0   0   0   4 88 85 78 54 
   9   0   0   0   4   0   0   0   0   8   9   0   0   0   6   4   0   0   0   0   4   0   4   0  10   0   0   0   0   0   8   4 92 80 66 55 
   4  10  10   8   0   0   0   5   0   0   0   0   0   0   7   0   0   0   0   0   0   0   0   0   0   0   0   0   6   0   0   4 88 87 76 56 
   7   0   0   0   0   0   0   7   0   0   0   4   0   0  10   0   0   0   0   0   0   0   0   0   0   0   0   0   0   0   0   5 97 84 83 76 70 
  10   0   0   0   0   0   0   0   0   0   0   0   0   0   0   0   4   0   0   0   0   0   0   0   0   0   0   0   0   6   0   5 90 79 77 75 66 
   5   0   0   0   0   9   7   0   0   0   0   0   0   0   0   0   6   0   0   0   0   0   0   0  10   0   3   0   0   0   0   4 79 76 75 68 
   7   5   0   0   0   0   0   0   0   0   0   0   0   0   8   0   0   0   0   0   0   0   0   0   0   0   0   0   0   0   6   4 81 79 77 76 
   1   0   0   0   0   0   0   0   0   0   6   0   0   0   0   8   0   0   0   0   0   0   0   0   0   0   0   0   0   0   0   3 77 76 75 
   1   8   0   0   0   0   0   7   0   0   0   0   0   0   0   0   5   0   0   0   0   0   0   0   0   0   0   0   0   0   0   3 80 78 74 
   9   0   0   0   0   0   0   0   0   7   0   0   6   0   0   6   0   0   8   0   0   0   0   0   8   0   0   0   8   0   0   3 81 79 76 
   1   4   0   0   0   0  10   0   0   0   0   0   0   9   0   0   0   4   0   0   0   0   0   0   0   0   0   6   5   0   0   3 91 78 75 
   7   0   0   0   0   0   0   0   0   0   0   6  10   0   4   0   9   0   0   4   0   0   0   0   0   0   0   0   0   0   0   3 84 80 75 
   8   0   0   0   0   0   0   3   0   0   0   0   7   0   0   0   0   0   0   0   0   0   0   0   0   0   0   0   0   0   0   3 83 78 75 
   9   0   0   0   0   4   0  10   0   0   0   0   5   0   0   0   0   0   0  10   0   0   0   9   0   0   0   0   0   0   0   2 91 66 
   6   6   0   0   0   0   0   0   0   0   0   0   0   0   0   0   0   0   0   0   0   0   0   0   0   6   0   0   0   0   0   2 83 78 
   1   3   0   0   0   0   0   0   0  10   0   0   5   0   0   0   0   0   0   0   0   0   0   0   0   0   0   0   0   0   0   2 86 74 
   5   0   0   0   0   0   0   0   0   0   0   0   0   0   0  10   0   0   0   0   0   0   4   0  10   0   0   0   0   0   0   2 89 82 
   2   0   0   0   0   0   0   0   0   4   8   0   0   0   0   0   8   0   0   0   6   0   0   0   0   0   0   0   0   0   0   2 77 74 
   5   0   0   0   0   0   0   0   0   0   0   0   0   0   0   0   0   0   0   0   0   0   3   0   0   0   0   0   0   0   0   1 74 
   1   0   0   6   0   0   0   0   0   0   0   0   9   6   0   0   0   0   8   0   0   0   0   0   0   0   0   6   0   0   0   1 75 
   4   0   0   0   0   0   0   0   0   0   0   0   0   0   0   0   0   0   0   9   0   0   0   0   0   0   0   0   0   0   0   1 74 
   9   0   0   0   0   5   0   0   0   0   7   0   0   0   0   0   0   0   0   0   0   0   0   0   4   8   0   0   0   0   0   1 75 
   4   0   0   0   0   0   0   0   0   0   0   0   0   0   4   0   0   0   0   0   0   0   0   7   0   0   0   0   0   0   0   1 75 
   3   0   0   0   0   0   0   0   0   0   0   0   0   7   0   7   0   0   0   0   0   5   0   0   0   0   0   0   0   0   0   1 80 
  10   0   0   0   0   0   0   6   0   0   0   0   0   0   0   0   0   0   0   0   0   5   0   0   0   0   0   0   0   0   0   1 74 
   5   0   0   0   0   0   0   8   0   0   0   0   0   0   0   0   0   0   0   0   6   0   0   0   0   0   0   0   0   9   0   1 76 
   1   0   3   0   0   0   0   0   0   0   0   0   0   8   0   0   0   8   8   0   0   0   0   0   0   0   0   0   0   0   0   1 102
   9   0   0   0   0   0   0   0   0   0   9   0   0   0   0   0   7   0   0   0   0   6   0   0   0   0   0   0   0   0   0   1 102
   8   0   0   0   0   0   0   0   0   7   0   4   6   0   4   0  10   0   0   0   0   0   0   0   0   0   0   0   5   0   0   1 102
   6   0   0   0   9   0   0   0   0   0   4   0   0   0   0   0   5   0   0   0   0   0   8   0   0   4   5   0   6   0   0   1 102
   7   9   0   0   6   0   0   0   0   0   0   5   0   7   0   0   0   7   0   0   0   9   0   0   0   0   0   0   0   0   0   1 102
   3   5   3   0   0   0   0   0   0   0   0   0   0   6   0   0   0   0   6   0   0   0   5   0   0   0   0   0   0   0   0   1 102
   7   0   0   0   0   0   6   0   0   0   5   0   0   0   0   0   0   0   0   0   0   0   4   0   0   0   0   0   0   0   0   1 102
   1   0   0   0   0   0   0   0   0   2   0   0   0   0   6   0   0   0   0   0   0   0   0   3   0   0   0   0   0   0   0   1 102
   2   0   0   0   0   0   0   0   9   0   0   0   0   0   0   0   0   0   0   0   0   0   0   0   3   0   0   7   0   0   0   1 102
   3   0   0   0   0   0   0   0   0   0   0   0   0   0   0   0   0   0   0   0   0   0   0   0   0   0   0   0   0   0   0   1 102
   9   0   0   0   0   0   8   0   0   0   0   0   0   0   0   0   0   6   0   0   0   0   5   8   0   0   6   0   0   6   0   1 102
   8   5   0   0   0   0   7   0   0   0   0  10   0   0   0   0   0   9   0   9   0   0   8   0   2   0   0   0   0   0   0   1 102
   1   0   0   0   0   0   0   0   0   0   0   0   0  10   0   0   0   0   0   0   0   0   0   0   5   0   0   0   0   0   0   1 102
  10   0   0   0   0   0   0   3   8   6   0   0   0   0   0   0   0   4   0   0   0   0   0   0   0   0   0   0   7   0   0   1 102
   9   0   0   0   0   0   6   0   0   0   0   0   0   4   7   0   0   0   0   0   0   0  10   0   0   0   0   0   0   7   0   1 102
   3   6   0   0   0   0   0   0   0   0   0   0   0   5   0   0   0   0   0   0   6   0   6   0   0   0   0   0   0   0   0   1 102
   2   0   6   0   8   0   0   0   0   0   7   0   0   0   0   0   0   0   0   7   0   0   0   0   0   0   0   0   0   0   0   1 102
   9   0   0   0   0   0   0   0   0   0   0   0   0   0   5   0   0   0   6   0   8   0   0   3   0   0   0   0   0   0   0   1 102
   1   7   0   0   0   3   0   0   0   0   0   0   0   0   0   0   0   0   0   0   5   0   0   6   0   0   0   0   4   0   0   1 102
   9   0   0   0   0   0   0   0   0   0   0   0   0   0   0   0   0   0   0   0   0   0   0   0   0   0   0   0   0   0   0   1 102
   5   7   0   0   0   0   0   0   0   7   0   0   0   0   0   0   0   0   0   0   0   0   0   0   0   8   0   0   6   0   0   1 102
  10   9  10   0   0   0   0   0   0   0   0   0   0   0   0   3   4   0   0   0   0   0   0   0   0   0   0   0   0   0   0   1 102
   1   0   0   0   0   0   0   0   6   0   0   0   0   0   0   0   0   0   0  10   0   2   8   0   0  10   0   0   0   0   0   1 102
   4   0   0   0   0   0   0   0   0   0   8   0   0   0   0   0   0   0   0   0   0   0   4   0   0   0   0   0   0   0   0   1 102
   8   0   4   0   0   0   0   0   0   0   3   0   3   0   8   0   0   0   0   0   9   0   0   0   0   0   8   0   0   0   0   1 102
   6   0   6   0   6   0   3   0   0   0   0   0   0   0   0   0   0   0   0   0   0   0   0   0   0   0   0   0   6   0   0   1 102
   9   0   0   0   0   5   0   0   0   5   0   0   0   0   0   0   0   0   0   0   0   0   0   4   0   0   0   5   0   0   0   1 102
   8   0   0   6   9   0   0   3   0   0   0   7   0   6   0   0   3   0   8   0   0   0   0   0   0   0   0   0   0   0   0   1 102
   0   0   0   0   0   0   0   0   0   0   0   0   0   0   0   0   0   0   0   0   0   0   0   0   0   0   0   0   0   0   0   0 
